c Standarized MaxSat Instance
c{
c "sha1sum": "cca06ad08c834ef8e3d9e52c25ba5f7050bbf71b",
c "nvars": 125,
c "ncls": 750,
c "total_lits": 1500,
c "nhards": 0,
c "nhard_nlits": 0,
c "nhard_len_stats":
c    { "min": 0,
c      "max": 0,
c      "ave": 0.0000,
c      "stddev": 0.0000 },
c "nsofts": 750,
c "nsoft_nlits": 1500,
c "nsoft_len_stats":
c    { "min": 2,
c      "max": 2,
c      "ave": 2.0000,
c      "stddev": 0.0000 },
c "nsoft_wts": 1,
c "soft_wt_stats":
c    { "min": 1,
c      "max": 1,
c      "ave": 1.0000,
c      "stddev": 0.0000 }
c}
c------------------------------------------------------------
1 1 -2 0
1 -1 2 0
1 2 -3 0
1 -2 3 0
1 3 4 0
1 -3 -4 0
1 4 5 0
1 -4 -5 0
1 5 1 0
1 -5 -1 0
1 6 7 0
1 -6 -7 0
1 7 -8 0
1 -7 8 0
1 8 9 0
1 -8 -9 0
1 9 -10 0
1 -9 10 0
1 10 6 0
1 -10 -6 0
1 11 12 0
1 -11 -12 0
1 12 13 0
1 -12 -13 0
1 13 -14 0
1 -13 14 0
1 14 15 0
1 -14 -15 0
1 15 11 0
1 -15 -11 0
1 16 -17 0
1 -16 17 0
1 17 -18 0
1 -17 18 0
1 18 -19 0
1 -18 19 0
1 19 -20 0
1 -19 20 0
1 20 16 0
1 -20 -16 0
1 21 22 0
1 -21 -22 0
1 22 23 0
1 -22 -23 0
1 23 -24 0
1 -23 24 0
1 24 25 0
1 -24 -25 0
1 25 -21 0
1 -25 21 0
1 1 6 0
1 -1 -6 0
1 2 7 0
1 -2 -7 0
1 3 8 0
1 -3 -8 0
1 4 9 0
1 -4 -9 0
1 5 10 0
1 -5 -10 0
1 6 -11 0
1 -6 11 0
1 7 12 0
1 -7 -12 0
1 8 13 0
1 -8 -13 0
1 9 -14 0
1 -9 14 0
1 10 15 0
1 -10 -15 0
1 11 16 0
1 -11 -16 0
1 12 -17 0
1 -12 17 0
1 13 18 0
1 -13 -18 0
1 14 -19 0
1 -14 19 0
1 15 -20 0
1 -15 20 0
1 16 -21 0
1 -16 21 0
1 17 -22 0
1 -17 22 0
1 18 23 0
1 -18 -23 0
1 19 -24 0
1 -19 24 0
1 20 -25 0
1 -20 25 0
1 21 -1 0
1 -21 1 0
1 22 2 0
1 -22 -2 0
1 23 -3 0
1 -23 3 0
1 24 4 0
1 -24 -4 0
1 25 5 0
1 -25 -5 0
1 1 26 0
1 -1 -26 0
1 2 27 0
1 -2 -27 0
1 3 -28 0
1 -3 28 0
1 4 -29 0
1 -4 29 0
1 5 -30 0
1 -5 30 0
1 6 -31 0
1 -6 31 0
1 7 32 0
1 -7 -32 0
1 8 -33 0
1 -8 33 0
1 9 -34 0
1 -9 34 0
1 10 -35 0
1 -10 35 0
1 11 -36 0
1 -11 36 0
1 12 -37 0
1 -12 37 0
1 13 -38 0
1 -13 38 0
1 14 39 0
1 -14 -39 0
1 15 40 0
1 -15 -40 0
1 16 41 0
1 -16 -41 0
1 17 -42 0
1 -17 42 0
1 18 43 0
1 -18 -43 0
1 19 -44 0
1 -19 44 0
1 20 -45 0
1 -20 45 0
1 21 46 0
1 -21 -46 0
1 22 -47 0
1 -22 47 0
1 23 -48 0
1 -23 48 0
1 24 -49 0
1 -24 49 0
1 25 50 0
1 -25 -50 0
1 26 27 0
1 -26 -27 0
1 27 -28 0
1 -27 28 0
1 28 29 0
1 -28 -29 0
1 29 -30 0
1 -29 30 0
1 30 26 0
1 -30 -26 0
1 31 32 0
1 -31 -32 0
1 32 -33 0
1 -32 33 0
1 33 -34 0
1 -33 34 0
1 34 -35 0
1 -34 35 0
1 35 -31 0
1 -35 31 0
1 36 37 0
1 -36 -37 0
1 37 -38 0
1 -37 38 0
1 38 39 0
1 -38 -39 0
1 39 40 0
1 -39 -40 0
1 40 -36 0
1 -40 36 0
1 41 -42 0
1 -41 42 0
1 42 -43 0
1 -42 43 0
1 43 -44 0
1 -43 44 0
1 44 -45 0
1 -44 45 0
1 45 -41 0
1 -45 41 0
1 46 -47 0
1 -46 47 0
1 47 -48 0
1 -47 48 0
1 48 -49 0
1 -48 49 0
1 49 -50 0
1 -49 50 0
1 50 46 0
1 -50 -46 0
1 26 31 0
1 -26 -31 0
1 27 32 0
1 -27 -32 0
1 28 -33 0
1 -28 33 0
1 29 -34 0
1 -29 34 0
1 30 35 0
1 -30 -35 0
1 31 -36 0
1 -31 36 0
1 32 37 0
1 -32 -37 0
1 33 -38 0
1 -33 38 0
1 34 39 0
1 -34 -39 0
1 35 40 0
1 -35 -40 0
1 36 -41 0
1 -36 41 0
1 37 -42 0
1 -37 42 0
1 38 -43 0
1 -38 43 0
1 39 44 0
1 -39 -44 0
1 40 -45 0
1 -40 45 0
1 41 -46 0
1 -41 46 0
1 42 47 0
1 -42 -47 0
1 43 -48 0
1 -43 48 0
1 44 -49 0
1 -44 49 0
1 45 50 0
1 -45 -50 0
1 46 -26 0
1 -46 26 0
1 47 -27 0
1 -47 27 0
1 48 -28 0
1 -48 28 0
1 49 29 0
1 -49 -29 0
1 50 -30 0
1 -50 30 0
1 26 51 0
1 -26 -51 0
1 27 52 0
1 -27 -52 0
1 28 -53 0
1 -28 53 0
1 29 54 0
1 -29 -54 0
1 30 -55 0
1 -30 55 0
1 31 56 0
1 -31 -56 0
1 32 57 0
1 -32 -57 0
1 33 58 0
1 -33 -58 0
1 34 -59 0
1 -34 59 0
1 35 60 0
1 -35 -60 0
1 36 -61 0
1 -36 61 0
1 37 -62 0
1 -37 62 0
1 38 63 0
1 -38 -63 0
1 39 64 0
1 -39 -64 0
1 40 65 0
1 -40 -65 0
1 41 66 0
1 -41 -66 0
1 42 -67 0
1 -42 67 0
1 43 -68 0
1 -43 68 0
1 44 -69 0
1 -44 69 0
1 45 70 0
1 -45 -70 0
1 46 71 0
1 -46 -71 0
1 47 72 0
1 -47 -72 0
1 48 73 0
1 -48 -73 0
1 49 74 0
1 -49 -74 0
1 50 -75 0
1 -50 75 0
1 51 -52 0
1 -51 52 0
1 52 -53 0
1 -52 53 0
1 53 -54 0
1 -53 54 0
1 54 -55 0
1 -54 55 0
1 55 -51 0
1 -55 51 0
1 56 -57 0
1 -56 57 0
1 57 -58 0
1 -57 58 0
1 58 59 0
1 -58 -59 0
1 59 60 0
1 -59 -60 0
1 60 -56 0
1 -60 56 0
1 61 62 0
1 -61 -62 0
1 62 -63 0
1 -62 63 0
1 63 64 0
1 -63 -64 0
1 64 65 0
1 -64 -65 0
1 65 -61 0
1 -65 61 0
1 66 67 0
1 -66 -67 0
1 67 -68 0
1 -67 68 0
1 68 69 0
1 -68 -69 0
1 69 -70 0
1 -69 70 0
1 70 66 0
1 -70 -66 0
1 71 72 0
1 -71 -72 0
1 72 73 0
1 -72 -73 0
1 73 74 0
1 -73 -74 0
1 74 -75 0
1 -74 75 0
1 75 -71 0
1 -75 71 0
1 51 56 0
1 -51 -56 0
1 52 -57 0
1 -52 57 0
1 53 58 0
1 -53 -58 0
1 54 59 0
1 -54 -59 0
1 55 -60 0
1 -55 60 0
1 56 -61 0
1 -56 61 0
1 57 62 0
1 -57 -62 0
1 58 63 0
1 -58 -63 0
1 59 64 0
1 -59 -64 0
1 60 65 0
1 -60 -65 0
1 61 66 0
1 -61 -66 0
1 62 67 0
1 -62 -67 0
1 63 68 0
1 -63 -68 0
1 64 -69 0
1 -64 69 0
1 65 -70 0
1 -65 70 0
1 66 71 0
1 -66 -71 0
1 67 -72 0
1 -67 72 0
1 68 -73 0
1 -68 73 0
1 69 74 0
1 -69 -74 0
1 70 75 0
1 -70 -75 0
1 71 51 0
1 -71 -51 0
1 72 52 0
1 -72 -52 0
1 73 53 0
1 -73 -53 0
1 74 54 0
1 -74 -54 0
1 75 -55 0
1 -75 55 0
1 51 76 0
1 -51 -76 0
1 52 -77 0
1 -52 77 0
1 53 78 0
1 -53 -78 0
1 54 -79 0
1 -54 79 0
1 55 80 0
1 -55 -80 0
1 56 81 0
1 -56 -81 0
1 57 -82 0
1 -57 82 0
1 58 -83 0
1 -58 83 0
1 59 -84 0
1 -59 84 0
1 60 -85 0
1 -60 85 0
1 61 -86 0
1 -61 86 0
1 62 -87 0
1 -62 87 0
1 63 -88 0
1 -63 88 0
1 64 89 0
1 -64 -89 0
1 65 90 0
1 -65 -90 0
1 66 -91 0
1 -66 91 0
1 67 92 0
1 -67 -92 0
1 68 -93 0
1 -68 93 0
1 69 94 0
1 -69 -94 0
1 70 -95 0
1 -70 95 0
1 71 96 0
1 -71 -96 0
1 72 -97 0
1 -72 97 0
1 73 -98 0
1 -73 98 0
1 74 99 0
1 -74 -99 0
1 75 -100 0
1 -75 100 0
1 76 -77 0
1 -76 77 0
1 77 78 0
1 -77 -78 0
1 78 79 0
1 -78 -79 0
1 79 80 0
1 -79 -80 0
1 80 76 0
1 -80 -76 0
1 81 82 0
1 -81 -82 0
1 82 83 0
1 -82 -83 0
1 83 84 0
1 -83 -84 0
1 84 85 0
1 -84 -85 0
1 85 -81 0
1 -85 81 0
1 86 87 0
1 -86 -87 0
1 87 88 0
1 -87 -88 0
1 88 -89 0
1 -88 89 0
1 89 -90 0
1 -89 90 0
1 90 86 0
1 -90 -86 0
1 91 -92 0
1 -91 92 0
1 92 -93 0
1 -92 93 0
1 93 94 0
1 -93 -94 0
1 94 95 0
1 -94 -95 0
1 95 91 0
1 -95 -91 0
1 96 97 0
1 -96 -97 0
1 97 98 0
1 -97 -98 0
1 98 99 0
1 -98 -99 0
1 99 100 0
1 -99 -100 0
1 100 96 0
1 -100 -96 0
1 76 -81 0
1 -76 81 0
1 77 -82 0
1 -77 82 0
1 78 -83 0
1 -78 83 0
1 79 84 0
1 -79 -84 0
1 80 -85 0
1 -80 85 0
1 81 86 0
1 -81 -86 0
1 82 87 0
1 -82 -87 0
1 83 -88 0
1 -83 88 0
1 84 89 0
1 -84 -89 0
1 85 90 0
1 -85 -90 0
1 86 91 0
1 -86 -91 0
1 87 -92 0
1 -87 92 0
1 88 -93 0
1 -88 93 0
1 89 94 0
1 -89 -94 0
1 90 -95 0
1 -90 95 0
1 91 -96 0
1 -91 96 0
1 92 97 0
1 -92 -97 0
1 93 98 0
1 -93 -98 0
1 94 -99 0
1 -94 99 0
1 95 100 0
1 -95 -100 0
1 96 -76 0
1 -96 76 0
1 97 77 0
1 -97 -77 0
1 98 78 0
1 -98 -78 0
1 99 -79 0
1 -99 79 0
1 100 -80 0
1 -100 80 0
1 76 -101 0
1 -76 101 0
1 77 102 0
1 -77 -102 0
1 78 -103 0
1 -78 103 0
1 79 104 0
1 -79 -104 0
1 80 105 0
1 -80 -105 0
1 81 106 0
1 -81 -106 0
1 82 107 0
1 -82 -107 0
1 83 -108 0
1 -83 108 0
1 84 109 0
1 -84 -109 0
1 85 -110 0
1 -85 110 0
1 86 111 0
1 -86 -111 0
1 87 -112 0
1 -87 112 0
1 88 -113 0
1 -88 113 0
1 89 114 0
1 -89 -114 0
1 90 -115 0
1 -90 115 0
1 91 116 0
1 -91 -116 0
1 92 117 0
1 -92 -117 0
1 93 -118 0
1 -93 118 0
1 94 -119 0
1 -94 119 0
1 95 -120 0
1 -95 120 0
1 96 121 0
1 -96 -121 0
1 97 122 0
1 -97 -122 0
1 98 -123 0
1 -98 123 0
1 99 -124 0
1 -99 124 0
1 100 125 0
1 -100 -125 0
1 101 -102 0
1 -101 102 0
1 102 -103 0
1 -102 103 0
1 103 104 0
1 -103 -104 0
1 104 105 0
1 -104 -105 0
1 105 -101 0
1 -105 101 0
1 106 -107 0
1 -106 107 0
1 107 108 0
1 -107 -108 0
1 108 -109 0
1 -108 109 0
1 109 110 0
1 -109 -110 0
1 110 106 0
1 -110 -106 0
1 111 -112 0
1 -111 112 0
1 112 -113 0
1 -112 113 0
1 113 -114 0
1 -113 114 0
1 114 115 0
1 -114 -115 0
1 115 -111 0
1 -115 111 0
1 116 -117 0
1 -116 117 0
1 117 118 0
1 -117 -118 0
1 118 -119 0
1 -118 119 0
1 119 120 0
1 -119 -120 0
1 120 -116 0
1 -120 116 0
1 121 -122 0
1 -121 122 0
1 122 -123 0
1 -122 123 0
1 123 -124 0
1 -123 124 0
1 124 -125 0
1 -124 125 0
1 125 121 0
1 -125 -121 0
1 101 -106 0
1 -101 106 0
1 102 -107 0
1 -102 107 0
1 103 108 0
1 -103 -108 0
1 104 -109 0
1 -104 109 0
1 105 110 0
1 -105 -110 0
1 106 -111 0
1 -106 111 0
1 107 -112 0
1 -107 112 0
1 108 -113 0
1 -108 113 0
1 109 114 0
1 -109 -114 0
1 110 115 0
1 -110 -115 0
1 111 116 0
1 -111 -116 0
1 112 -117 0
1 -112 117 0
1 113 -118 0
1 -113 118 0
1 114 119 0
1 -114 -119 0
1 115 -120 0
1 -115 120 0
1 116 -121 0
1 -116 121 0
1 117 -122 0
1 -117 122 0
1 118 123 0
1 -118 -123 0
1 119 124 0
1 -119 -124 0
1 120 125 0
1 -120 -125 0
1 121 -101 0
1 -121 101 0
1 122 102 0
1 -122 -102 0
1 123 -103 0
1 -123 103 0
1 124 104 0
1 -124 -104 0
1 125 105 0
1 -125 -105 0
1 101 1 0
1 -101 -1 0
1 102 -2 0
1 -102 2 0
1 103 3 0
1 -103 -3 0
1 104 -4 0
1 -104 4 0
1 105 5 0
1 -105 -5 0
1 106 -6 0
1 -106 6 0
1 107 -7 0
1 -107 7 0
1 108 -8 0
1 -108 8 0
1 109 9 0
1 -109 -9 0
1 110 -10 0
1 -110 10 0
1 111 11 0
1 -111 -11 0
1 112 -12 0
1 -112 12 0
1 113 13 0
1 -113 -13 0
1 114 -14 0
1 -114 14 0
1 115 15 0
1 -115 -15 0
1 116 16 0
1 -116 -16 0
1 117 17 0
1 -117 -17 0
1 118 -18 0
1 -118 18 0
1 119 -19 0
1 -119 19 0
1 120 20 0
1 -120 -20 0
1 121 21 0
1 -121 -21 0
1 122 22 0
1 -122 -22 0
1 123 -23 0
1 -123 23 0
1 124 -24 0
1 -124 24 0
1 125 25 0
1 -125 -25 0
